 $CONTRL EXETYP=RUN $END
 $CONTRL SCFTYP=RHF DFTTYP=B97D RUNTYP=ENERGY MAXIT=50 ICHARG=-0
         D5=.T. INTTYP=HONDO ICUT=11 ITOL=30 $END
 $SYSTEM TIMLIM=3600 MWORDS=60 $END
 $SCF    DIRSCF=.T. NCONV=7 $END
 $BASIS  EXTFIL=.T. GBASIS=TZVP $END
 $DFTD   VERSN=4 $END
 $SMP    HTTFIX=.F. CALL64=.T. $END
 $P2P    P2P=.T. XDLB=.T. $END
 $STATPT OPTTOL=0.0001 NSTEP=100 $END
 $DATA 
Br- in Q3 DFT-D4/def2TZVP & spherical basis functions. Energy for Q3 at Br-@Q3 opt geom
CNH 3

 C           6.0  -2.7469910225  -0.8020306473   0.0000000000
 C           6.0   2.0673776329   1.9767514858   0.0000000000
 N           7.0  -2.1670492321  -1.1651467558  -1.2950800614
 N           7.0   2.0884146013   1.2913684060  -1.2936542463
 C           6.0   0.9789132686   1.6964491931  -2.0765545218
 O           8.0   0.8646454513   1.4980983407  -3.2651615387
 C           6.0   2.7378382456   0.0001376441  -1.6175566593
 H           1.0   3.7294089934   0.0014759929  -1.1583147872
 H           1.0  -3.7861802696  -1.1627157102   0.0000000000
 H           1.0   2.9017111999   2.6936981304   0.0000000000
 H           1.0   2.8314142762   0.0006120441  -2.7048571024
 BR        -35.0   0.0000000000   0.0000000000   0.0000000000
 $END