 $CONTRL EXETYP=RUN $END
 $CONTRL SCFTYP=RHF DFTTYP=B97D RUNTYP=ENERGY ICHARG=-1
         D5=.T. INTTYP=HONDO ICUT=11 ITOL=30 $END
 $SYSTEM TIMLIM=3600 MWORDS=60 $END
 $SCF    DIRSCF=.T. NCONV=8 $END
 $BASIS  EXTFIL=.T. GBASIS=TZVP $END
 $DFTD   VERSN=4 $END
 $SMP    HTTFIX=.F. CALL64=.T. $END
 $P2P    P2P=.T. XDLB=.T. $END
 $STATPT OPTTOL=0.0001 NSTEP=100 $END
 $DATA 
Cl- in Q3 DFT-D4/def2TZVP & spherical basis functions. Energy for Cl- in Cl-@Q3 opt geom
CNH 3

 C          -6.0  -2.7256779237  -0.7992795386   0.0000000000
 C          -6.0   2.0546803705   1.9601621430   0.0000000000
 N          -7.0  -2.1402309061  -1.1562518668  -1.2870303167
 N          -7.0   2.0686477740   1.2734836951  -1.2860830110
 C          -6.0   0.9674756635   1.6762332441  -2.0697157089
 O          -8.0   0.8551495969   1.4814176102  -3.2598357745
 C          -6.0   2.7285067185   0.0000589675  -1.6147133143
 H          -1.0   3.7217967542   0.0010430180  -1.1574235119
 H          -1.0  -3.7636203239  -1.1656864015   0.0000000000
 H          -1.0   2.8925769429   2.6739629624   0.0000000000
 H          -1.0   2.8236658043   0.0004519123  -2.7025362764
 CL         17.0   0.0000000000   0.0000000000   0.0000000000
 $END