 $CONTRL EXETYP=RUN $END
 $CONTRL SCFTYP=RHF DFTTYP=B97D RUNTYP=OPTIMIZE MAXIT=200 ICHARG=0
         D5=.T. INTTYP=HONDO ICUT=11 ITOL=30 $END
 $SYSTEM TIMLIM=3600 MWORDS=60 $END
 $SCF    DIRSCF=.T. NCONV=7 $END
 $BASIS  EXTFIL=.T. GBASIS=TZVP $END
 $DFTD   VERSN=4 $END
 $SMP    HTTFIX=.F. CALL64=.T. $END
 $P2P    P2P=.T. XDLB=.T. $END
 $STATPT OPTTOL=0.0001 NSTEP=100 $END
 $DATA 
F- in Q3.H(1,0)1+ DFT-D4/def2TZVP & spherical basis functions. C1 geom opt. F-C-OH
C1
 C           6.0   2.0357223635  -1.9313494401  -0.0129421280
 C           6.0   0.6677886697   2.7446014068  -0.0014275441
 C           6.0  -2.7126620731  -0.7978270385   0.0014954064
 C           6.0  -2.6996883608   0.7915673074   0.0007427878
 C           6.0   0.6625668753  -2.7302963130  -0.0140418418
 C           6.0   2.0419011601   1.9468104691   0.0036064197
 N           7.0   2.0089850036  -1.2080220423  -1.2590423854
 N           7.0   0.0516083358   2.3700762682  -1.2460767258
 N           7.0  -2.0759163981  -1.1467329829   1.2853513343
 N           7.0   2.0470884886  -1.2582684952   1.2754571724
 N           7.0   0.0699442413   2.3922059889   1.2839616731
 N           7.0  -2.1090441126  -1.1451425878  -1.2539382498
 N           7.0  -2.0881772389   1.1373732661  -1.2490242502
 N           7.0   0.0410810824  -2.3415874134  -1.2551710538
 N           7.0   2.0261610193   1.2347657946   1.2861690643
 N           7.0  -2.0630999653   1.1243055682   1.2830318651
 N           7.0   0.0772404780  -2.4127741981   1.2771048524
 N           7.0   2.0323118725   1.2459688062  -1.2530921304
 C           6.0  -1.9039471975  -0.0037524084  -2.0468657187
 C           6.0   0.9280310107  -1.6073547905  -2.0552691934
 C           6.0   0.9090883306   1.5580575954   1.9905748377
 C           6.0  -1.7453802963  -0.0195270175   1.9372631646
 C           6.0   0.9923847570  -1.7055333085   2.0769748502
 C           6.0   0.9465894393   1.6419430518  -2.0462387731
 O           8.0  -1.6768778816  -0.0012860000  -3.2306953203
 O           8.0   0.8100928565  -1.4091812671  -3.2404966629
 O           8.0   0.7095519720   1.2273403451   3.1776203164
 O           8.0  -1.3436556235  -0.0580958333   3.1566243320
 O           8.0   0.9159791886  -1.5773859503   3.2796511680
 O           8.0   0.8281562613   1.4477724476  -3.2311421375
 C           6.0  -1.3599604884   2.3550235954  -1.5949136012
 C           6.0  -1.3662735101  -2.3592492272  -1.5962958218
 C           6.0   2.7277672495  -0.0298392671   1.6173230201
 C           6.0  -1.3478992502   2.3712985023   1.5968153427
 C           6.0  -1.3178480624  -2.3998019234   1.6119412782
 C           6.0   2.7234239820   0.0076223449  -1.5985046984
 H           1.0  -1.8621234534   3.2211954242  -1.1561459578
 H           1.0  -1.8521066184  -3.2238176545  -1.1372950478
 H           1.0   3.7095631981   0.0002260867   1.1410844808
 H           1.0  -1.8452201274   3.1868971578   1.0716890473
 H           1.0  -1.8369868659  -3.2229931405   1.1190605355
 H           1.0   3.7131706728  -0.0010097905  -1.1349632721
 H           1.0   2.8830838418  -2.6322333128  -0.0292690667
 H           1.0   0.8457280834   3.8285280425   0.0085624950
 H           1.0  -3.7394739004  -1.1833571917   0.0436384134
 H           1.0  -3.7199205776   1.1955212140   0.0436562310
 H           1.0   0.8511918907  -3.8133433659  -0.0379604302
 H           1.0   2.8938351852   2.6395262810   0.0273273309
 H           1.0  -1.4025698458   2.4278865852  -2.6843858727
 H           1.0  -1.4245774440  -2.4465043277  -2.6840365693
 H           1.0   2.8514464094  -0.0284421085   2.7015817624
 H           1.0  -1.4517040723   2.5376517322   2.6718088818
 H           1.0  -1.3943944615  -2.5166562488   2.6938493142
 H           1.0   2.8334977650   0.0136167419  -2.6856342763
 H           1.0  -0.4736074959   0.5511359721   3.3062799354
 F           9.0  -0.7587         0.2259         0.5013      
 $END