 $CONTRL EXETYP=RUN $END
 $CONTRL SCFTYP=RHF DFTTYP=B97D RUNTYP=OPTIMIZE ICHARG=-1
         D5=.T. INTTYP=HONDO ICUT=11 ITOL=30 $END
 $SYSTEM TIMLIM=3600 MWORDS=60 $END
 $SCF    DIRSCF=.T. NCONV=6 $END
 $BASIS  EXTFIL=.T. GBASIS=TZVP $END
 $DFTD   VERSN=4 $END
 $SMP    HTTFIX=.F. CALL64=.T. $END
 $P2P    P2P=.T. XDLB=.T. $END
 $STATPT OPTTOL=0.0001 NSTEP=100 $END
 $DATA 
F- in Q3 DFT-D4/def2TZVP & spherical basis functions. C1 Geom opt from F offset
C1
 C           6.0   2.0294713158  -1.9280937963   0.0000000000
 C           6.0   0.6550425505   2.7216206139   0.0000000000
 C           6.0  -2.6845138663  -0.7935268176   0.0000000000
 C           6.0  -2.6819427852   0.7933710086   0.0000000000
 C           6.0   0.6538919445  -2.7193160878   0.0000000000
 C           6.0   2.0280508407   1.9259450792   0.0000000000
 N           7.0   2.0336395798  -1.2402313452  -1.2729098583
 N           7.0   0.0572520616   2.3812992109  -1.2729098583
 N           7.0  -2.0908916414  -1.1410678657   1.2729098583
 N           7.0   2.0336395798  -1.2402313452   1.2729098583
 N           7.0   0.0572520616   2.3812992109   1.2729098583
 N           7.0  -2.0908916414  -1.1410678657  -1.2729098583
 N           7.0  -2.0863282216   1.1387240263  -1.2719596821
 N           7.0   0.0570001761  -2.3761752536  -1.2719596821
 N           7.0   2.0293280455   1.2374512274   1.2719596821
 N           7.0  -2.0863282216   1.1387240263   1.2719596821
 N           7.0   0.0570001761  -2.3761752536   1.2719596821
 N           7.0   2.0293280455   1.2374512274  -1.2719596821
 C           6.0  -1.8911079485  -0.0006800362  -2.0602689313
 C           6.0   0.9461429029  -1.6374075066  -2.0602689313
 C           6.0   0.9449650456   1.6380875428   2.0602689313
 C           6.0  -1.8911079485  -0.0006800362   2.0602689313
 C           6.0   0.9461429029  -1.6374075066   2.0602689313
 C           6.0   0.9449650456   1.6380875428  -2.0602689313
 O           8.0  -1.6805547584  -0.0008145865  -3.2543203847
 O           8.0   0.8409828318  -1.4549958200  -3.2543203847
 O           8.0   0.8395719267   1.4558104065   3.2543203847
 O           8.0  -1.6805547584  -0.0008145865   3.2543203847
 O           8.0   0.8409828318  -1.4549958200   3.2543203847
 O           8.0   0.8395719267   1.4558104065  -3.2543203847
 C           6.0  -1.3577305942   2.3515066757  -1.6086247427
 C           6.0  -1.3575992212  -2.3515825239  -1.6086247427
 C           6.0   2.7153298154   0.0000758482   1.6086247427
 C           6.0  -1.3577305942   2.3515066757   1.6086247427
 C           6.0  -1.3575992212  -2.3515825239   1.6086247427
 C           6.0   2.7153298154   0.0000758482  -1.6086247427
 H           1.0  -1.8552794225   3.2098953266  -1.1464541643
 H           1.0  -1.8522111851  -3.2116667743  -1.1464541643
 H           1.0   3.7074906076   0.0017714477   1.1464541643
 H           1.0  -1.8552794225   3.2098953266   1.1464541643
 H           1.0  -1.8522111851  -3.2116667743   1.1464541643
 H           1.0   3.7074906076   0.0017714477  -1.1464541643
 H           1.0   2.8722056818  -2.6393678446   0.0000000000
 H           1.0   0.8496567625   3.8070870077   0.0000000000
 H           1.0  -3.7218624443  -1.1677191630   0.0000000000
 H           1.0  -3.7179256952   1.1716591326   0.0000000000
 H           1.0   0.8442762742  -3.8056476677   0.0000000000
 H           1.0   2.8736494210   2.6339885351   0.0000000000
 H           1.0  -1.4103672080   2.4419221038  -2.6967789052
 H           1.0  -1.4095829719  -2.4423748827  -2.6967789052
 H           1.0   2.8199501799   0.0004527789   2.6967789052
 H           1.0  -1.4103672080   2.4419221038   2.6967789052
 H           1.0  -1.4095829719  -2.4423748827   2.6967789052
 H           1.0   2.8199501799   0.0004527789  -2.6967789052
 F           9.0   0.0000000000   0.5000000000   0.8000000000
 $END