 $CONTRL EXETYP=RUN $END
 $CONTRL SCFTYP=RHF DFTTYP=B97D RUNTYP=OPTIMIZE MAXIT=200 ICHARG=0
         D5=.T. INTTYP=HONDO ICUT=11 ITOL=30 $END
 $SYSTEM TIMLIM=3600 MWORDS=60 $END
 $SCF    DIRSCF=.T. NCONV=7 $END
 $BASIS  EXTFIL=.T. GBASIS=TZVP $END
 $DFTD   VERSN=4 $END
 $SMP    HTTFIX=.F. CALL64=.T. $END
 $P2P    P2P=.T. XDLB=.T. $END
 $STATPT OPTTOL=0.0001 NSTEP=100 $END
 $DATA 
F-@Q3.H(1,0)1+ DFT-D4/def2TZVP & spherical basis functions. C1 geom opt
C1
 C           6.0   2.0341138167  -1.9257599235  -0.0216518283
 C           6.0   0.6657038510   2.7315296979  -0.0102914933
 C           6.0  -2.6992235203  -0.7970481519   0.0060158010
 C           6.0  -2.6947723490   0.7907064593   0.0064630650
 C           6.0   0.6668956525  -2.7364775841  -0.0164289140
 C           6.0   2.0459284485   1.9492636120   0.0047773023
 N           7.0   1.8954796959  -1.0822283088  -1.1826956795
 N           7.0   0.0081184429   2.1835739001  -1.1668633634
 N           7.0  -2.1000524266  -1.1388394849   1.3122563197
 N           7.0   2.0856797125  -1.3120488955   1.2956284869
 N           7.0   0.1023249259   2.4506206571   1.3086884066
 N           7.0  -1.9773176360  -1.1165959186  -1.1915993597
 N           7.0  -2.1812014506   1.1506831275  -1.2788122021
 N           7.0   0.0698365849  -2.4190740739  -1.2890408020
 N           7.0   1.9193001839   1.1169104717   1.2151791876
 N           7.0  -1.9045179197   1.0991024829   1.2230316156
 N           7.0   0.0400892196  -2.2789285926   1.2185583018
 N           7.0   2.1102094729   1.3269245036  -1.2917200975
 C           6.0  -1.9170092098  -0.0093183767  -2.0526428723
 C           6.0   0.9191713113  -1.5862862979  -2.0522909190
 C           6.0   0.9101346163   1.5615032573   2.0039218604
 C           6.0  -1.7636445711  -0.0130716243   1.9707366694
 C           6.0   0.9907732138  -1.7103149466   2.0796790163
 C           6.0   0.9557716903   1.6373976071  -2.0507541115
 O           8.0  -1.6977008414  -0.0252220543  -3.2309797917
 O           8.0   0.8160529096  -1.3646304146  -3.2284200955
 O           8.0   0.7056500992   1.2225382114   3.1794764447
 O           8.0  -1.3802630729  -0.0481742124   3.1927967586
 O           8.0   0.8885201933  -1.5830074421   3.2748141656
 O           8.0   0.8176193707   1.4707049259  -3.2302744487
 C           6.0  -1.3786045160   2.3329630083  -1.5898859776
 C           6.0  -1.3488034081  -2.3799094681  -1.5950543403
 C           6.0   2.7288220310  -0.0585448682   1.6159127271
 C           6.0  -1.3172997625   2.3972356585   1.5999126840
 C           6.0  -1.3344274901  -2.3888597780   1.6166267872
 C           6.0   2.7340752039   0.0359601609  -1.5885605914
 H           1.0  -1.8313265431   3.2245280424  -1.1515383653
 H           1.0  -1.8647042133  -3.2257918496  -1.1369793258
 H           1.0   3.7070682111   0.0096302093   1.1397069119
 H           1.0  -1.8421561818   3.1899298227   1.0687993753
 H           1.0  -1.8384372811  -3.2165261746   1.1186582861
 H           1.0   3.7164469886  -0.0251774252  -1.1163396114
 H           1.0   2.8938310181  -2.5984059744  -0.1318030867
 H           1.0   0.8094048872   3.8138893142  -0.1062254820
 H           1.0  -3.7164428489  -1.2043067966  -0.0091561904
 H           1.0  -3.6964299905   1.2058625774   0.1654640025
 H           1.0   0.8436363652  -3.8163426221   0.0535994911
 H           1.0   2.8954292465   2.6255692783   0.1483000303
 H           1.0  -1.3783625099   2.4263241669  -2.6784724327
 H           1.0  -1.4436408850  -2.4435104701  -2.6816734263
 H           1.0   2.8491370729  -0.0155035029   2.6995156046
 H           1.0  -1.4620601638   2.5477403961   2.6721117060
 H           1.0  -1.3784923035  -2.5339184368   2.6972608298
 H           1.0   2.8531151382  -0.0110248353  -2.6728318325
 H           1.0  -0.5314484783   0.5637569633   3.3650948036
 F           9.0   0.0000000000   0.0000000000   0.0000000000
 $END