 $CONTRL SCFTYP=RHF DFTTYP=B97D RUNTYP=OPTIMIZE
         INTTYP=HONDO ICUT=11 ITOL=30 $END
 $SYSTEM TIMLIM=3600 MWORDS=130 $END
 $SCF    DIRSCF=.T. NCONV=6 $END
 $BASIS  EXTFIL=.T. GBASIS=TZVP $END
 $DFTD   VERSN=4 $END
 $SMP    HTTFIX=.F. CALL64=.T. $END
 $P2P    P2P=.T. XDLB=.T. $END
 $STATPT DXMAX=0.1 TRUPD=.F. FMAXT=100 OPTTOL=0.0001 NSTEP=100 $END
 $DATA 
He@Q3 DFT-D4/def2TZVP geometry optimisation
C1
C     6.0    -1.67840195     0.01680015    -1.01789033
C     6.0    -0.24028772     0.25090805    -1.63638663
N     7.0    -1.82768261     1.08607900    -0.05237653
N     7.0     0.35013318     1.17257345    -0.68446189
C     6.0    -0.64720958     1.86559618     0.00409246
N     7.0    -1.59327674    -1.36071503    -0.57138276
N     7.0     0.30105397    -1.08363497    -1.78959835
C     6.0    -0.61129826    -2.04419255    -1.29044247
C     6.0    -2.55895996     0.95624322     1.20312989
C     6.0    -2.52829599    -2.09866810     0.26742202
H     1.0    -2.46284485     0.11059075    -1.78212774
H     1.0    -0.30205938     0.72928751    -2.62400007
N     7.0    -1.82997739     0.18713301     2.20299101
N     7.0    -2.05267835    -2.25230694     1.63740194
C     6.0    -2.04300308    -1.18648398     2.61851788
C     6.0    -0.75060213    -1.47226167     3.48763204
C     6.0    -0.96526605     0.83437669     3.08769655
C     6.0    -0.91307914    -3.07733083     1.79624665
N     7.0    -0.03271221    -2.42179179     2.65858221
N     7.0    -0.19498715    -0.15840149     3.73887753
O     8.0    -0.75295109    -4.15712357     1.28411365
O     8.0    -0.88813406     2.02171588     3.28346324
H     1.0    -3.53841329     0.51013380     1.01682329
H     1.0    -2.68625283     1.96694982     1.59859633
H     1.0    -2.61627579    -3.10510445    -0.14893882
H     1.0    -3.50815010    -1.61617565     0.26554009
H     1.0    -2.95615244    -1.25080693     3.22694206
H     1.0    -1.00976074    -1.94221449     4.44687891
O     8.0    -0.54666531    -3.23408365    -1.47459543
O     8.0    -0.54167503     2.94060349     0.53980851
C     6.0     1.71211445    -1.41816306    -1.63228428
C     6.0     1.73942447     1.59868002    -0.58178639
N     7.0     2.13383722    -1.43341076    -0.23788273
N     7.0     2.44917607     0.94466501     0.51186848
C     6.0     2.89737773    -0.43251547     0.48272225
C     6.0     2.74705482    -0.92069155     1.98119807
C     6.0     2.01373625     1.29243767     1.81319582
N     7.0     2.25741267    -2.27912545     1.86438024
N     7.0     1.90374446     0.11271866     2.55145144
O     8.0     1.79625177     2.41249537     2.20313525
O     8.0     1.87212777    -3.72553396     0.07454138
C     6.0     2.05775070    -2.61396098     0.50326747
H     1.0     1.83939707    -2.43087912    -2.02252412
H     1.0     2.32531285    -0.72322792    -2.21021819
H     1.0     2.26462269     1.42287433    -1.52321649
H     1.0     1.73721087     2.66853070    -0.35924605
H     1.0     3.94638801    -0.46186125     0.15591367
H     1.0     3.71762156    -0.93188435     2.49702644
C     6.0     1.33511484    -2.90112329     2.80808663
C     6.0     1.23277652     0.12110761     3.84432960
H     1.0     1.68594253    -2.74160314     3.83004832
H     1.0     1.33199787    -3.97105074     2.58565593
H     1.0     1.32625043     1.12956154     4.25470972
H     1.0     1.70202243    -0.59402502     4.52362299
He    2.0     0.19822250    -0.35504878     0.97983038
 $END
