 $CONTRL SCFTYP=RHF RUNTYP=OPTIMIZE MAXIT=30 MULT=1 COORD=ZMT units=ANGS 
         icharg=0 mult=1 MAXIT=100 $END
 $SYSTEM TIMLIM=60 MWORDS=40 $END
 $BASIS GBASIS=STO NGAUSS=3 $END
 $SCF DIRSCF=.T. NCONV=4 $END
 $STATPT OPTTOL=0.0001 NSTEP=30 $END
 $DATA 
He in Q3 D3h symmetry STO3G Geometry optimisation
DNH 3

He
C   1    2.48051
C   1    2.48051  2 120.0000
C   2    1.68573  1  70.1357  3 180.0000
C   1    2.48051  3  80.2713  4 180.0000
C   3    1.68573  1  70.1357  2   0.0000
C   5    1.68573  1  70.1357  3 180.0000
N   2    1.61698  1 102.4340  4 -113.3165
N   3    1.61698  1 102.4340  6 -113.3165
N   7    1.61698  5 115.8929  1 -94.5371
N   2    1.61698  1 102.4340  8 -133.3670
N   3    1.61698  1 102.4340  9 -133.3670
N   4    1.61698  2 115.8929  1  94.5371
N   5    1.61698  1 102.4340  3  66.6835
N   6    1.61698  3 115.8929  1  94.5371
N   4    1.61698  2 115.8929  1 -94.5371
N   5    1.61698  1 102.4340  3 -66.6835
N   6    1.61698  3 115.8929  1 -94.5371
N   7    1.61698  5 115.8929  1  94.5371
C   16    1.61253  4  78.8565  2  -6.9342
C   9    1.61253  3  78.8565  1  80.6885
C   10    1.61253  7  78.8565  5  -6.9342
C   13    1.61253  4  78.8565  2   6.9342
C   12    1.61253  3  78.8565  1 -80.6885
C   19    1.61253  7  78.8565  5   6.9342
O   20    1.28735  16 105.1841  4 -177.2961
O   21    1.28735  9 105.1842  3 177.2963
O   22    1.28735  10 105.1841  7 -177.2961
O   23    1.28735  13 105.1841  4 177.2961
O   24    1.28735  12 105.1842  3 -177.2963
O   25    1.28735  19 105.1841  7 177.2961
C   8    1.58734  2 111.4441  1 -76.0139
C   17    1.58734  5 111.4441  1  76.0139
C   10    1.58734  7 111.4441  5 149.7683
C   11    1.58734  2 111.4441  1  76.0139
C   14    1.58734  5 111.4441  1 -76.0139
C   16    1.58734  4 111.4441  2 149.7683
H   32    1.14000  35  36.7192  18 -122.0312
H   33    1.14000  36  36.7192  9 122.0312
H   34    1.14000  37  36.7192  10 -122.0313
H   38    1.11975  35  18.5300  32 180.0000
H   39    1.11975  36  18.5300  33 180.0000
H   40    1.11975  37  18.5300  34 180.0000
H   2    1.15370  8  85.2295  11  80.2615
H   3    1.15370  9  85.2295  12  80.2615
H   4    1.15370  44  57.6981  13  71.3590
H   5    1.15370  14  85.2295  17  80.2615
H   6    1.15370  45  57.6981  15  71.3590
H   7    1.15370  47  57.6981  10 -71.3590
H   32    1.14000  38 109.2960  8 117.1108
H   33    1.14000  39 109.2960  17 -117.1108
H   34    1.14000  40 109.2960  10 -117.1109
H   35    1.14000  41 109.2960  11 -117.1108
H   36    1.14000  42 109.2960  14 117.1108
H   37    1.14000  43 109.2960  16 -117.1109
 $END
