 $CONTRL EXETYP=RUN $END
 $CONTRL SCFTYP=RHF DFTTYP=B97D RUNTYP=OPTIMIZE
         D5=.T. INTTYP=HONDO ICUT=11 ITOL=30 $END
 $SYSTEM TIMLIM=3600 MWORDS=40 $END
 $SCF    DIRSCF=.T. NCONV=7 $END
 $BASIS  EXTFIL=.T. GBASIS=TZVP $END
 $DFTD   VERSN=4 $END
 $SMP    HTTFIX=.F. CALL64=.T. $END
 $P2P    P2P=.T. XDLB=.T. $END
 $STATPT OPTTOL=0.00005 NSTEP=100 $END
 $DATA 
He in Q3 DFT-D4/def2TZVP with spherical basis functions. Geometry optimisation
C1
 C           6.0  -1.6921461566   0.0306077697  -1.0327116264
 C           6.0  -0.2422924614   0.2564156687  -1.6560361945
 N           7.0  -1.7609665859   1.0117082282   0.0303845004
 N           7.0   0.3181963917   1.3017429996  -0.8260188636
 C           6.0  -0.6573193630   1.8798107798  -0.0027754584
 N           7.0  -1.7091792188  -1.3860142792  -0.7332060226
 N           7.0   0.3363060525  -1.0708455027  -1.6606399859
 C           6.0  -0.6138798158  -2.0437596349  -1.3099038402
 C           6.0  -2.5758212196   0.9622727035   1.2370533379
 C           6.0  -2.5397847143  -2.0952249514   0.2299475703
 H           1.0  -2.4721930711   0.2509247992  -1.7747674710
 H           1.0  -0.3159553175   0.6190242511  -2.6908852412
 N           7.0  -1.9625396676   0.2259422062   2.3336272502
 N           7.0  -1.9618321276  -2.1691132954   1.5649047084
 C           6.0  -2.0553734710  -1.1888425758   2.6264086009
 C           6.0  -0.7558614785  -1.4683031313   3.5074603918
 C           6.0  -0.9668690566   0.8430262479   3.1030336379
 C           6.0  -0.9216983917  -3.0824079420   1.8016988829
 N           7.0  -0.0955362680  -2.5435217755   2.7975152067
 N           7.0  -0.1350817694  -0.1647883220   3.6175313985
 O           8.0  -0.7771167039  -4.1495966868   1.2577171666
 O           8.0  -0.8544012629   2.0272376588   3.3050137251
 H           1.0  -3.5565274716   0.5407703531   1.0058963876
 H           1.0  -2.6927386514   1.9937139916   1.5778500172
 H           1.0  -2.6306816628  -3.1231070456  -0.1291422991
 H           1.0  -3.5307281111  -1.6381479030   0.2775622379
 H           1.0  -2.9680531325  -1.3767519797   3.2088671213
 H           1.0  -1.0353144327  -1.8184697262   4.5108288374
 O           8.0  -0.5121468168  -3.2322301647  -1.4913791402
 O           8.0  -0.5741974884   2.9431974257   0.5612590600
 C           6.0   1.7489760035  -1.4269548205  -1.6297305632
 C           6.0   1.7211099233   1.6239685332  -0.6079078773
 N           7.0   2.3139456121  -1.4880506477  -0.2887002262
 N           7.0   2.3267779860   0.9010895094   0.5026285206
 C           6.0   2.9179300730  -0.4207644266   0.4815907870
 C           6.0   2.7649353180  -0.9220357672   1.9873390993
 C           6.0   2.0290567599   1.3074150419   1.8139003302
 N           7.0   2.1306052809  -2.2159423152   1.8505070114
 N           7.0   2.0743195771   0.1728505562   2.6353657030
 O           8.0   1.7960522281   2.4361481858   2.1707763115
 O           8.0   1.8614428220  -3.7361953829   0.1080833072
 C           6.0   2.0686840683  -2.6162507883   0.5062857768
 H           1.0   1.8264147969  -2.4325714154  -2.0498959265
 H           1.0   2.3216959175  -0.7300465300  -2.2456988808
 H           1.0   2.2917294034   1.4469025309  -1.5223633032
 H           1.0   1.7645694102   2.6851691502  -0.3513002854
 H           1.0   3.9784763294  -0.3346750494   0.2071622172
 H           1.0   3.7505035891  -1.0526640780   2.4554874556
 C           6.0   1.3122279192  -2.9151619033   2.8316935023
 C           6.0   1.2709184408   0.1367385561   3.8492920261
 H           1.0   1.7159585716  -2.7563173648   3.8341155639
 H           1.0   1.3636242508  -3.9778880406   2.5829774419
 H           1.0   1.3099523064   1.1390109943   4.2825607588
 H           1.0   1.6939621579  -0.5816125516   4.5551810970
 HE          2.0   0.1548871789  -0.6207711635   0.9839373267
 $END
