#libdir  /Applications/Firefly/ECP/
 $CONTRL EXETYP=check $END
 $CONTRL SCFTYP=RHF DFTTYP=B97D RUNTYP=OPTIMIZE ICHARG=-1
         ECP=READ D5=.T. INTTYP=HONDO ICUT=11 ITOL=30 $END
 $SYSTEM TIMLIM=3600 MWORDS=60 $END
 $SCF    DIRSCF=.T. NCONV=6 $END
 $BASIS  EXTFIL=.T. GBASIS=TZVP $END
 $DFTD   VERSN=4 $END
 $SMP    HTTFIX=.F. CALL64=.T. $END
 $P2P    P2P=.T. XDLB=.T. $END
 $STATPT OPTTOL=0.0001 NSTEP=100 $END
 $DATA 
I- in Q3 DFT-D4/def2TZVP & spherical basis functions, ECP for I. Geom opt with C3h sym
CNH 3

 C           6.0  -2.7402504349  -0.7933140325   0.0000000000
 C           6.0   2.0571524383   1.9764689577   0.0000000000
 N           7.0  -2.0924203593  -1.1516227516  -1.2674685062
 N           7.0   2.0435449842   1.2362701680  -1.2674737041
 C           6.0   0.9295707056   1.6100641212  -2.0837116496
 O           8.0   0.7910425546   1.3701217462  -3.2647862661
 C           6.0   2.7725244742  -0.0000053889  -1.5872062359
 H           1.0   3.7460452056  -0.0000016567  -1.0914091102
 H           1.0  -3.7702372514  -1.1811184513   0.0000000000
 H           1.0   2.9080053282   2.6745584110   0.0000000000
 H           1.0   2.9290405515  -0.0000004466  -2.6722286640
 I          53.0   0.0000000000   0.0000000000   0.0000000000
 $END
 $ECP 
C-ECP NONE
C-ECP
C-ECP
C-ECP
C-ECP
C-ECP
N-ECP NONE
N-ECP
N-ECP
N-ECP
N-ECP
N-ECP
N-ECP
N-ECP
N-ECP
N-ECP
N-ECP
N-ECP
C-ECP
C-ECP
C-ECP
C-ECP
C-ECP
C-ECP
O-ECP NONE
O-ECP
O-ECP
O-ECP
O-ECP
O-ECP
C-ECP
C-ECP
C-ECP
C-ECP
C-ECP
C-ECP
H-ECP NONE
H-ECP
H-ECP
H-ECP
H-ECP
H-ECP
H-ECP
H-ECP
H-ECP
H-ECP
H-ECP
H-ECP
H-ECP
H-ECP
H-ECP
H-ECP
H-ECP
H-ECP
@I_def2_SVP.ecp
 $END