 $CONTRL SCFTYP=RHF RUNTYP=OPTIMIZE COORD=UNIQUE units=ANGS 
         icharg=0 mult=1 MAXIT=100 $END
 $SYSTEM TIMLIM=60 MWORDS=40 $END
 $BASIS GBASIS=STO NGAUSS=3 $END
 $SCF DIRSCF=.T. NCONV=4 $END
 $STATPT OPTTOL=0.0001 NSTEP=30 $END
 $DATA 
Kr in Q3 D3h symmetry STO3G Geometry optimisation
DNH 3

 KR         36.0   0.0000000000   0.0000000000   0.0000000000
 C           6.0   2.0831337705   2.0023558073   0.0000000000
 N           7.0   2.0983441178   1.2817288112  -1.2961495765
 C           6.0   0.9819761162   1.7008290047  -2.1100595077
 O           8.0   0.8596883566   1.4890192794  -3.2983260751
 C           6.0   2.7647979412   0.0000000000  -1.6560150908
 H           1.0   3.7987820367   0.0000000000  -1.2998498465
 H           1.0   2.9126567065   2.7215511109   0.0000000000
 H           1.0   2.7837878632   0.0000000000  -2.7500232118
 $END
