 $CONTRL EXETYP=RUN $END
 $CONTRL SCFTYP=RHF DFTTYP=B97D RUNTYP=OPTIMIZE
         D5=.T. INTTYP=HONDO ICUT=11 ITOL=30 $END
 $SYSTEM TIMLIM=3600 MWORDS=60 $END
 $SCF    DIRSCF=.T. NCONV=6 $END
 $BASIS  EXTFIL=.T. GBASIS=TZVP $END
 $DFTD   VERSN=4 $END
 $SMP    HTTFIX=.F. CALL64=.T. $END
 $P2P    P2P=.T. XDLB=.T. $END
 $STATPT OPTTOL=0.0001 NSTEP=100 $END
 $DATA 
Kr in Q3 DFT-D4/def2TZVP with spherical basis functions. Geometry optimisation
C1
 C           6.0  -1.6968845439   0.0337177947  -1.0390047259
 C           6.0  -0.2449185837   0.2592262110  -1.6659498397
 N           7.0  -1.7570841478   1.0065518585   0.0347381877
 N           7.0   0.3122557938   1.3236034583  -0.8535887181
 C           6.0  -0.6620490117   1.8857122968  -0.0121370229
 N           7.0  -1.7255483112  -1.3883775267  -0.7563795398
 N           7.0   0.3387719480  -1.0684613121  -1.6555749602
 C           6.0  -0.6175469955  -2.0420622022  -1.3204954106
 C           6.0  -2.5784073478   0.9620258270   1.2408127556
 C           6.0  -2.5413846995  -2.0958136634   0.2256490873
 H           1.0  -2.4762943849   0.2672509475  -1.7770312911
 H           1.0  -0.3229994793   0.6066263911  -2.7050867102
 N           7.0  -1.9856692971   0.2294069039   2.3555983983
 N           7.0  -1.9616772872  -2.1654972669   1.5635684451
 C           6.0  -2.0628797879  -1.1916890636   2.6336410252
 C           6.0  -0.7594696689  -1.4701023219   3.5150972788
 C           6.0  -0.9731287308   0.8421306500   3.1121390866
 C           6.0  -0.9299629140  -3.0873983656   1.8098750224
 N           7.0  -0.1056141083  -2.5597401918   2.8171118168
 N           7.0  -0.1322187222  -0.1663762588   3.6120180612
 O           8.0  -0.7864135250  -4.1528810969   1.2626235659
 O           8.0  -0.8552180321   2.0260864612   3.3114887443
 H           1.0  -3.5579571951   0.5419324787   1.0030637678
 H           1.0  -2.6948423508   1.9954021450   1.5755656902
 H           1.0  -2.6281317250  -3.1258326359  -0.1279242124
 H           1.0  -3.5336430390  -1.6425155029   0.2763957167
 H           1.0  -2.9724343574  -1.3931776862   3.2155254624
 H           1.0  -1.0397884405  -1.8078881285   4.5220238107
 O           8.0  -0.5120823261  -3.2303066787  -1.5004539257
 O           8.0  -0.5798740276   2.9462161335   0.5570817188
 C           6.0   1.7536147780  -1.4287083101  -1.6295298358
 C           6.0   1.7192399244   1.6274142005  -0.6111026026
 N           7.0   2.3421004192  -1.4968830773  -0.2953257138
 N           7.0   2.3190292327   0.8965723099   0.5013821357
 C           6.0   2.9262635628  -0.4202719009   0.4810612199
 C           6.0   2.7750566824  -0.9239579738   1.9895716764
 C           6.0   2.0404439532   1.3085228573   1.8156843176
 N           7.0   2.1277609266  -2.2140539241   1.8516888707
 N           7.0   2.1027597956   0.1789888174   2.6485966487
 O           8.0   1.8049558765   2.4376018020   2.1693765347
 O           8.0   1.8676534266  -3.7392583738   0.1120120937
 C           6.0   2.0800611480  -2.6194483577   0.5074347457
 H           1.0   1.8245362737  -2.4338880973  -2.0514507855
 H           1.0   2.3225530565  -0.7315146570  -2.2481527726
 H           1.0   2.2961667864   1.4512329182  -1.5214568970
 H           1.0   1.7671993249   2.6865960824  -0.3477963687
 H           1.0   3.9865913808  -0.3204885267   0.2120922361
 H           1.0   3.7624116412  -1.0663906620   2.4493270639
 C           6.0   1.3093261094  -2.9179938578   2.8339604988
 C           6.0   1.2751828968   0.1384884761   3.8503216474
 H           1.0   1.7172732127  -2.7600679609   3.8345363983
 H           1.0   1.3636192521  -3.9792467942   2.5802729765
 H           1.0   1.3070519457   1.1413659821   4.2824957891
 H           1.0   1.6922995347  -0.5784053760   4.5608398525
 KR         36.0   0.1569666376  -0.6173142715   0.9841500545
 $END
