 $CONTRL EXETYP=RUN $END
 $CONTRL SCFTYP=RHF DFTTYP=B97D RUNTYP=OPTIMIZE ICHARG=0
         D5=.T. INTTYP=HONDO ICUT=11 ITOL=30 $END
 $SYSTEM TIMLIM=3600 MWORDS=60 $END
 $SCF    DIRSCF=.T. NCONV=7 $END
 $BASIS  EXTFIL=.T. GBASIS=TZVP $END
 $DFTD   VERSN=4 $END
 $SMP    HTTFIX=.F. CALL64=.T. $END
 $P2P    P2P=.T. XDLB=.T. $END
 $STATPT OPTTOL=0.0001 NSTEP=100 $END
 $DATA 
Kr in Q3 DFT-D4/def2TZVP & spherical basis functions. Geom optimization with C3h symmetry
CNH 3

 C           6.0  -2.7077848475  -0.7992125214   0.0000000000
 C           6.0   2.0452780020   1.9442803955   0.0000000000
 N           7.0  -2.0772274635  -1.1376569026  -1.2615125886
 N           7.0   2.0216031016   1.2287264787  -1.2611768070
 C           6.0   0.9555957761   1.6558425959  -2.0699941923
 O           8.0   0.8422083767   1.4596893268  -3.2549293989
 C           6.0   2.7282831333   0.0000102860  -1.6113776571
 H           1.0   3.7196306901   0.0011130455  -1.1530816862
 H           1.0  -3.7367092326  -1.1839820223   0.0000000000
 H           1.0   2.8947098339   2.6409164452   0.0000000000
 H           1.0   2.8287085207   0.0002123678  -2.6992063224
 KR         36.0   0.0000000000   0.0000000000   0.0000000000
 $END