 $CONTRL SCFTYP=RHF RUNTYP=OPTIMIZE COORD=UNIQUE units=ANGS 
         icharg=0 mult=1 MAXIT=100 $END
 $SYSTEM TIMLIM=60 MWORDS=40 $END
 $BASIS GBASIS=STO NGAUSS=3 $END
 $SCF DIRSCF=.T. NCONV=6 $END
 $STATPT OPTTOL=0.0001 NSTEP=30 $END
 $DATA 
Kr in Q3 D3h symmetry STO3G Geometry optimisation
DNH 3

 KR         36.0   0.0000000000   0.0000000000   0.0000000000
 C           6.0   2.0874108305   2.0159924835   0.0000000000
 N           7.0   2.0985936786   1.2852687571  -1.2899670191
 C           6.0   0.9672245067   1.6752784675  -2.1008993206
 O           8.0   0.8206810701   1.4214566772  -3.2772820635
 C           6.0   2.7836809003   0.0000000000  -1.5954596414
 H           1.0   3.7630710256   0.0000000000  -1.1105945089
 H           1.0   2.9268253794   2.7261501376   0.0000000000
 H           1.0   2.9319108558   0.0000000000  -2.6812359319
 $END
