 $CONTRL EXETYP=RUN $END
 $CONTRL SCFTYP=RHF DFTTYP=B97D RUNTYP=OPTIMIZE
         D5=.T. INTTYP=HONDO ICUT=11 ITOL=30 $END
 $SYSTEM TIMLIM=3600 MWORDS=40 $END
 $SCF    DIRSCF=.T. NCONV=6 $END
 $BASIS  EXTFIL=.T. GBASIS=TZVP $END
 $DFTD   VERSN=4 $END
 $SMP    HTTFIX=.F. CALL64=.T. $END
 $P2P    P2P=.T. XDLB=.T. $END
 $STATPT OPTTOL=0.0001 NSTEP=100 $END
 $DATA 
Ne in Q3 DFT-D4/def2TZVP with spherical basis functions. Geometry optimisation
C1
 C           6.0  -1.6914359432   0.0305159571  -1.0315793055
 C           6.0  -0.2423467019   0.2567847793  -1.6570218547
 N           7.0  -1.7589595125   1.0107076040   0.0321869424
 N           7.0   0.3185201695   1.3030059998  -0.8279062630
 C           6.0  -0.6562043015   1.8795822882  -0.0021706892
 N           7.0  -1.7073812604  -1.3858419464  -0.7315483855
 N           7.0   0.3364772174  -1.0707841238  -1.6628853317
 C           6.0  -0.6133706681  -2.0436898605  -1.3102954210
 C           6.0  -2.5763608773   0.9616996492   1.2372522515
 C           6.0  -2.5396725294  -2.0956158371   0.2296808478
 H           1.0  -2.4729541646   0.2505959774  -1.7721312931
 H           1.0  -0.3176873435   0.6191214135  -2.6917561790
 N           7.0  -1.9653200559   0.2258245574   2.3355450836
 N           7.0  -1.9644057819  -2.1698679378   1.5661180415
 C           6.0  -2.0569281002  -1.1892744053   2.6279165439
 C           6.0  -0.7556379093  -1.4680877622   3.5071467800
 C           6.0  -0.9669905548   0.8428674754   3.1019981293
 C           6.0  -0.9234464210  -3.0827395239   1.8021249631
 N           7.0  -0.0963292567  -2.5432684778   2.7966149839
 N           7.0  -0.1342108202  -0.1647607602   3.6144073937
 O           8.0  -0.7791588370  -4.1499374762   1.2581633828
 O           8.0  -0.8535701769   2.0271001110   3.3028112305
 H           1.0  -3.5561269760   0.5391003649   1.0041033663
 H           1.0  -2.6948560592   1.9931706735   1.5775390062
 H           1.0  -2.6278052777  -3.1236181475  -0.1298820718
 H           1.0  -3.5309583056  -1.6392365417   0.2751303616
 H           1.0  -2.9683449790  -1.3780018385   3.2119962736
 H           1.0  -1.0329640595  -1.8173454578   4.5114601263
 O           8.0  -0.5121947847  -3.2321602246  -1.4918102027
 O           8.0  -0.5724460970   2.9424344439   0.5625527864
 C           6.0   1.7492990604  -1.4271050526  -1.6301021298
 C           6.0   1.7214627089   1.6246149380  -0.6077555871
 N           7.0   2.3125292840  -1.4877351334  -0.2883381511
 N           7.0   2.3255365970   0.9008670222   0.5032236710
 C           6.0   2.9173610229  -0.4206152397   0.4813756890
 C           6.0   2.7662494911  -0.9223633307   1.9874069604
 C           6.0   2.0299937148   1.3074870950   1.8147263519
 N           7.0   2.1306028250  -2.2160003560   1.8509174861
 N           7.0   2.0778413004   0.1732097373   2.6370844377
 O           8.0   1.7963912409   2.4359631503   2.1717188320
 O           8.0   1.8604725121  -3.7358696328   0.1082617339
 C           6.0   2.0679759840  -2.6160254141   0.5065225953
 H           1.0   1.8269014906  -2.4331145412  -2.0493400344
 H           1.0   2.3228320060  -0.7301509637  -2.2450695736
 H           1.0   2.2930300736   1.4476345395  -1.5215656395
 H           1.0   1.7647004673   2.6856431791  -0.3504324727
 H           1.0   3.9774161599  -0.3339627832   0.2050967163
 H           1.0   3.7526217309  -1.0542661115   2.4534469568
 C           6.0   1.3113298896  -2.9153506884   2.8314983234
 C           6.0   1.2712582032   0.1374468372   3.8491972051
 H           1.0   1.7142459971  -2.7566450716   3.8341488246
 H           1.0   1.3619677128  -3.9778773649   2.5817660583
 H           1.0   1.3085396526   1.1405092415   4.2808261625
 H           1.0   1.6929533005  -0.5797376405   4.5570068830
 NE         10.0   0.1565804225  -0.6181764093   0.9829982733
 $END
