 $CONTRL EXETYP=RUN $END
 $CONTRL SCFTYP=RHF DFTTYP=B97D RUNTYP=OPTIMIZE ICHARG=-0
         D5=.T. INTTYP=HONDO ICUT=11 ITOL=30 $END
 $SYSTEM TIMLIM=3600 MWORDS=60 $END
 $SCF    DIRSCF=.T. NCONV=7 $END
 $BASIS  EXTFIL=.T. GBASIS=TZVP $END
 $DFTD   VERSN=4 $END
 $SMP    HTTFIX=.F. CALL64=.T. $END
 $P2P    P2P=.T. XDLB=.T. $END
 $STATPT OPTTOL=0.0001 NSTEP=100 $END
 $DATA 
Ne in Q3 DFT-D4/def2TZVP & spherical basis functions. Geom optimization with C3h symmetry
CNH 3

 C           6.0  -2.6845138663  -0.7935268176   0.0000000000
 C           6.0   2.0280508407   1.9259450792   0.0000000000
 N           7.0  -2.0908916414  -1.1410678657  -1.2729098583
 N           7.0   2.0293280455   1.2374512274  -1.2719596821
 C           6.0   0.9449650456   1.6380875428  -2.0602689313
 O           8.0   0.8395719267   1.4558104065  -3.2543203847
 C           6.0   2.7153298154   0.0000758482  -1.6086247427
 H           1.0   3.7074906076   0.0017714477  -1.1464541643
 H           1.0  -3.7218624443  -1.1677191630   0.0000000000
 H           1.0   2.8736494210   2.6339885351   0.0000000000
 H           1.0   2.8199501799   0.0004527789  -2.6967789052
 NE         10.0   0.0000000000   0.0000000000   0.0000000000
 $END