 $CONTRL EXETYP=RUN $END
 $CONTRL SCFTYP=RHF DFTTYP=B97D RUNTYP=OPTIMIZE MAXIT=200 ICHARG=+2
         D5=.T. INTTYP=HONDO ICUT=11 ITOL=30 $END
 $SYSTEM TIMLIM=3600 MWORDS=100 $END
 $SCF    DIRSCF=.T. NCONV=7 $END
 $BASIS  EXTFIL=.T. GBASIS=TZVP $END
 $DFTD   VERSN=4 $END
 $SMP    HTTFIX=.F. CALL64=.T. $END
 $P2P    P2P=.T. XDLB=.T. $END
 $STATPT OPTTOL=0.0001 NSTEP=100 $END
 $DATA 
2H3O+.Q3 DFT-D4/def2TZVP & spherical basis functions. C3 geom opt
CN 3

 C           6.0  -2.6975601203  -0.7959522096  -0.0666714489
 C           6.0   2.0389443037   1.9393727105  -0.0668576070
 N           7.0  -2.0559335939  -1.1334922154  -1.3068519893
 N           7.0   2.0096182893   1.2128917744  -1.3063970720
 C           6.0   0.9439759107   1.6343108978  -2.1217052993
 O           8.0   0.8297355252   1.4358998417  -3.3008504622
 C           6.0   2.7316319866  -0.0003891066  -1.6652496605
 H           1.0   3.7266097490  -0.0004134856  -1.2160425005
 H           1.0  -3.7199931790  -1.1930866159  -0.0434250885
 H           1.0   2.8928398839   2.6278690082  -0.0470399788
 H           1.0   2.8285350610  -0.0002267788  -2.7535194799
 N           7.0  -2.0503361640  -1.1263383895   1.2025455850
 N           7.0   2.0060353464   1.2175002654   1.2048445151
 C           6.0   0.9446505763   1.6351865115   1.9844900522
 O           8.0   0.8305222305   1.4373587810   3.1900736643
 C           6.0   2.7337664217   0.0004993820   1.5452006493
 H           1.0   3.7021611561  -0.0009915509   1.0445437315
 H           1.0   2.8977749275  -0.0007083390   2.6237956558
 O           8.0   0.0000000000   0.0000000000   5.1069765296
 H           1.0   0.8753614931   0.0000000000   4.6301245571
 O           8.0   0.0000000000   0.0000000000  -5.1069765296
 H           1.0   0.8753614931   0.0000000000  -4.6301245571
 $END