 $CONTRL EXETYP=RUN $END
 $CONTRL SCFTYP=RHF DFTTYP=B97D RUNTYP=OPTIMIZE MAXIT=200 ICHARG=+1
         D5=.T. INTTYP=HONDO ICUT=11 ITOL=30 $END
 $SYSTEM TIMLIM=3600 MWORDS=100 $END
 $SCF    DIRSCF=.T. NCONV=7 $END
 $BASIS  EXTFIL=.T. GBASIS=TZVP $END
 $DFTD   VERSN=4 $END
 $SMP    HTTFIX=.F. CALL64=.T. $END
 $P2P    P2P=.T. XDLB=.T. $END
 $STATPT OPTTOL=0.0001 NSTEP=100 $END
 $DATA 
Q3.H(1,0)1+ DFT-D4/def2TZVP & spherical basis functions. C1 geom opt
C1
 C           6.0   2.0413885105  -1.9404906527  -0.0065569072
 C           6.0   0.6676234881   2.7462031850  -0.0083641415
 C           6.0  -2.6853813855  -0.7946497041  -0.0037663661
 C           6.0  -2.6838467282   0.7945416329  -0.0036933703
 C           6.0   0.6671250040  -2.7450406816  -0.0082462503
 C           6.0   2.0407991215   1.9399297611  -0.0062733727
 N           7.0   2.0077070241  -1.2131536778  -1.2490793841
 N           7.0   0.0395274044   2.3313149988  -1.2350192838
 N           7.0  -2.0041306548  -1.1210886192   1.2740382035
 N           7.0   2.0025348765  -1.2125160854   1.2575904358
 N           7.0   0.0685760570   2.3790906655   1.2699873484
 N           7.0  -2.0681187803  -1.1377317817  -1.2439927827
 N           7.0  -2.0697978052   1.1380166634  -1.2449309545
 N           7.0   0.0407592985  -2.3327318842  -1.2366092595
 N           7.0   1.9979031987   1.2087343763   1.2561164823
 N           7.0  -1.9986437271   1.1209634897   1.2726183115
 N           7.0   0.0675688811  -2.3740426098   1.2683066860
 N           7.0   2.0088103260   1.2153491604  -1.2500188248
 C           6.0  -1.8979343083  -0.0005676498  -2.0603346970
 C           6.0   0.9416375264  -1.6302548662  -2.0606454660
 C           6.0   0.9446884360   1.6152807031   2.0490085015
 C           6.0  -1.7776364003  -0.0017644380   1.9721216961
 C           6.0   0.9466862914  -1.6172029736   2.0483614497
 C           6.0   0.9405311149   1.6295034988  -2.0590600361
 O           8.0  -1.6713429109  -0.0007394469  -3.2373491253
 O           8.0   0.8193608923  -1.4374534627  -3.2397518548
 O           8.0   0.7786638866   1.3554266121   3.2258723498
 O           8.0  -1.4970739904  -0.0053851655   3.2457167844
 O           8.0   0.7838907758  -1.3602477024   3.2292794614
 O           8.0   0.8167224745   1.4360767459  -3.2393326117
 C           6.0  -1.3630687232   2.3709241858  -1.5990160181
 C           6.0  -1.3622915273  -2.3712929786  -1.5991314908
 C           6.0   2.7408886616  -0.0010316031   1.6002715625
 C           6.0  -1.3249367221   2.4028003604   1.6173253246
 C           6.0  -1.3254725068  -2.4024967665   1.6168188039
 C           6.0   2.7322281614   0.0004638123  -1.6049350752
 H           1.0  -1.8600524427   3.2291740445  -1.1410697323
 H           1.0  -1.8589414370  -3.2295937698  -1.1412504219
 H           1.0   3.7072975512   0.0009753633   1.0970175786
 H           1.0  -1.8456913240   3.2088816907   1.0993289921
 H           1.0  -1.8446517890  -3.2092471368   1.0991959588
 H           1.0   3.7200319230   0.0006122545  -1.1396885348
 H           1.0   2.8990023545  -2.6230011308   0.0101151141
 H           1.0   0.8413199204   3.8285381209  -0.0136875463
 H           1.0  -3.6999322697  -1.2028693532   0.0694691318
 H           1.0  -3.6975747197   1.2048077714   0.0726169393
 H           1.0   0.8396637623  -3.8275315869  -0.0113766623
 H           1.0   2.8993456311   2.6210083405   0.0141938118
 H           1.0  -1.4174933818   2.4612667494  -2.6858638298
 H           1.0  -1.4177306956  -2.4609816372  -2.6860633371
 H           1.0   2.9004683185   0.0000874134   2.6800884156
 H           1.0  -1.4252887573   2.5418865124   2.6946664641
 H           1.0  -1.4243682969  -2.5415395112   2.6945754085
 H           1.0   2.8437213385   0.0001748835  -2.6904628626
 H           1.0  -0.5250709254   0.0126138869   3.4708689836
 $END
