 $CONTRL EXETYP=RUN $END
 $CONTRL SCFTYP=RHF DFTTYP=B97D RUNTYP=OPTIMIZE MAXIT=200 ICHARG=+1
         D5=.T. INTTYP=HONDO ICUT=11 ITOL=30 $END
 $SYSTEM TIMLIM=7200 MWORDS=100 $END
 $SCF    DIRSCF=.T. NCONV=7 $END
 $BASIS  EXTFIL=.T. GBASIS=TZVP $END
 $DFTD   VERSN=4 $END
 $SMP    HTTFIX=.F. CALL64=.T. $END
 $P2P    P2P=.T. XDLB=.T. $END
 $STATPT OPTTOL=0.0001 NSTEP=100 $END
 $DATA 
Q3.Li+ DFT-D4/def2TZVP & spherical basis functions. C1 geom opt
C1
 C           6.0   2.0423738087  -1.9392327159  -0.0175488408
 C           6.0   0.6745533725   2.7649050154  -0.0029110725
 C           6.0  -2.7014729208  -0.7981319810   0.0066018840
 C           6.0  -2.6841748422   0.7921664365   0.0074287971
 C           6.0   0.6686063800  -2.7494634804  -0.0191230313
 C           6.0   2.0443406308   1.9498897343   0.0050896018
 N           7.0   1.9990201955  -1.2033035140  -1.2547208826
 N           7.0   0.0379428565   2.3385634393  -1.2192762394
 N           7.0  -2.0446234585  -1.1410207270   1.2885707132
 N           7.0   2.0066198509  -1.2236034493   1.2493108914
 N           7.0   0.0734154199   2.4050902288   1.2831712315
 N           7.0  -2.0526126169  -1.1358417215  -1.2239964206
 N           7.0  -2.0817988636   1.1389707941  -1.2400988920
 N           7.0   0.0473374916  -2.3543319257  -1.2559206193
 N           7.0   1.9814936085   1.2046471228   1.2695812387
 N           7.0  -1.9686319781   1.1060864945   1.2604947179
 N           7.0   0.0604100945  -2.3716407172   1.2489246596
 N           7.0   2.0161114380   1.2279054827  -1.2374680150
 C           6.0  -1.8999018913  -0.0043213711  -2.0485186500
 C           6.0   0.9386346493  -1.6296221343  -2.0714806229
 C           6.0   0.9102906424   1.5853658564   2.0153557428
 C           6.0  -1.7635469513  -0.0216447177   1.9757203204
 C           6.0   0.9810650734  -1.6975416420   2.0714448313
 C           6.0   0.9404995869   1.6357778351  -2.0428753064
 O           8.0  -1.6758044382  -0.0074928638  -3.2256588296
 O           8.0   0.8166695070  -1.4265274713  -3.2496098732
 O           8.0   0.6912016827   1.2425723675   3.1880706899
 O           8.0  -1.3762409731  -0.0619373595   3.1969535020
 O           8.0   0.8949109483  -1.5581929003   3.2668610592
 O           8.0   0.8134947099   1.4341659738  -3.2197557220
 C           6.0  -1.3698452596   2.3693989182  -1.5879831933
 C           6.0  -1.3616347904  -2.3744643190  -1.5965705380
 C           6.0   2.7247547707  -0.0266263127   1.6166370821
 C           6.0  -1.3383407510   2.3898215761   1.6066316289
 C           6.0  -1.3237737037  -2.4156314613   1.6156607436
 C           6.0   2.7306113779   0.0036763676  -1.6007186041
 H           1.0  -1.8684724453   3.2329163279  -1.1439121811
 H           1.0  -1.8593353751  -3.2338047316  -1.1438610400
 H           1.0   3.7022723471   0.0073320778   1.1340103332
 H           1.0  -1.8565625948   3.1895501461   1.0792614554
 H           1.0  -1.8458480574  -3.2270315776   1.1083922142
 H           1.0   3.7199597984  -0.0038060103  -1.1416187007
 H           1.0   2.9005925708  -2.6227946345  -0.0131976795
 H           1.0   0.8524444559   3.8469593528  -0.0076550958
 H           1.0  -3.7231773130  -1.1932682506   0.0449452011
 H           1.0  -3.6931142594   1.2127598481   0.0961395220
 H           1.0   0.8520801510  -3.8314483511  -0.0153402471
 H           1.0   2.9097232148   2.6215469054   0.0453611367
 H           1.0  -1.4112868800   2.4520535181  -2.6764164702
 H           1.0  -1.4286528865  -2.4500904557  -2.6839023869
 H           1.0   2.8566614147  -0.0306154821   2.7005540369
 H           1.0  -1.4555281036   2.5525384160   2.6803287272
 H           1.0  -1.3980449060  -2.5554756679   2.6953177426
 H           1.0   2.8349712558   0.0158235341  -2.6883037152
 LI          3.0   0.0            0.0            3.3
 $END