 $CONTRL SCFTYP=RHF RUNTYP=OPTIMIZE MAXIT=50 COORD=UNIQUE $END
 $SYSTEM TIMLIM=600 MWORDS=130 $END
 $BASIS GBASIS=	AM1 $END
 $STATPT OPTTOL=0.0001 NSTEP=20 $END
 $DATA 
Q3 D3h symmetry AM1 Geometry optimisation
DNH 3

 C           6.0   2.0572701790   1.9765231340   0.0000000000
 N           7.0   2.0435522362   1.2363186765  -1.2674820975
 C           6.0   0.9296169405   1.6101402522  -2.0836393548
 O           8.0   0.7909410689   1.3699454842  -3.2646303819
 C           6.0   2.7721632202   0.0000000000  -1.5878524076
 H           1.0   3.7462510027   0.0000000000  -1.0932465616
 H           1.0   2.9083387389   2.6743759543   0.0000000000
 H           1.0   2.9269562371   0.0000000000  -2.6731374317
 $END
