 $CONTRL SCFTYP=RHF RUNTYP=OPTIMIZE COORD=UNIQUE units=ANGS 
         icharg=0 mult=1 MAXIT=100 $END
 $SYSTEM TIMLIM=60 MWORDS=40 $END
 $BASIS GBASIS=STO NGAUSS=3 $END
 $SCF DIRSCF=.T. NCONV=4 $END
 $STATPT OPTTOL=0.0001 NSTEP=30 $END
 $DATA 
Q3 D3h symmetry STO3G Geometry optimisation
DNH 3

C     6.0     1.89640     1.59894     0.00000
N     7.0     2.52011     1.32489    -1.45114
C     6.0     1.04497     1.80994    -1.77538
O     8.0     0.97116     1.68210    -3.06531
C     6.0     3.40726     0.00000    -1.47367
H     1.0     4.08886     0.00000    -0.55988
H     1.0     2.50056     2.58180     0.00000
H     1.0     4.04449     0.00000    -2.41894
 $END
