 $CONTRL SCFTYP=RHF RUNTYP=OPTIMIZE MAXIT=50 COORD=UNIQUE
    D5=.T. $END
 $SYSTEM TIMLIM=600 MWORDS=130 $END
 $BASIS GBASIS=N31 NGAUSS=6 NDFUNC=1 NFFUNC=0 NPFUNC=1 $END
 $SCF DIRSCF=.TRUE. NCONV=6 $END
 $STATPT OPTTOL=0.0001 NSTEP=20 $END
 $DATA 
Q3 D3h symmetry 6-31+G(d,p) Geometry optimisation
DNH 3

 C           6.0   2.0307364356   1.9353492422   0.0000000000
 N           7.0   1.9898722060   1.2060820127  -1.2480317493
 C           6.0   0.9567162426   1.6570776203  -2.0516244188
 O           8.0   0.8675544096   1.5026436829  -3.2477647336
 C           6.0   2.7134020999   0.0000000000  -1.6103787702
 H           1.0   3.6918450003   0.0000000000  -1.1623834685
 H           1.0   2.8756377708   2.6051466167   0.0000000000
 H           1.0   2.8261319598   0.0000000000  -2.6807134891
 $END
