 $CONTRL SCFTYP=RHF DFTTYP=B97D RUNTYP=OPTIMIZE
         INTTYP=HONDO ICUT=11 ITOL=30 $END
 $SYSTEM TIMLIM=7200 MWORDS=200 $END
 $SCF    DIRSCF=.T. NCONV=6 $END
 $BASIS  EXTFIL=.T. GBASIS=TZVP $END
 $DFTD   VERSN=4 $END
 $SMP    HTTFIX=.F. CALL64=.T. $END
 $P2P    P2P=.T. XDLB=.T. $END
 $STATPT OPTTOL=0.0001 NSTEP=100 NPRT=-2 $END
 $LICENSE NBOLID=1587 NBOKEY=BC142C89 $end
 $NBO FILE=Q3_opt_DFT-D4_def2TZVP.1 ARCHIVE $END
 $DATA 
Q3 DFT-D4/def2TZVP geometry optimisation
C1
C     6.0    -1.72089     0.03703    -1.06561
C     6.0    -0.25117     0.26459    -1.69973
N     7.0    -1.72317     0.95596     0.06426
N     7.0     0.32079     1.27246    -0.81764
C     6.0    -0.61144     1.70055     0.04175
N     7.0    -1.69689    -1.37543    -0.71145
N     7.0     0.34712    -1.05896    -1.59333
C     6.0    -0.57039    -1.93539    -1.16793
C     6.0    -2.63741     0.92084     1.22358
C     6.0    -2.60366    -2.06010     0.23201
H     1.0    -2.56964     0.25465    -1.74841
H     1.0    -0.23982     0.61537    -2.75364
N     7.0    -1.94685     0.20497     2.31523
N     7.0    -1.92033    -2.12643     1.53957
C     6.0    -2.09029    -1.20420     2.65386
C     6.0    -0.77221    -1.48623     3.54665
C     6.0    -0.90268     0.72252     2.97311
C     6.0    -0.86140    -2.91344     1.76351
N     7.0    -0.08725    -2.51870     2.78123
N     7.0    -0.11370    -0.18727     3.55684
O     8.0    -0.61008    -3.88800     1.08458
O     8.0    -0.67586     1.91445     3.01480
H     1.0    -3.57832     0.41623     0.96176
H     1.0    -2.94697     1.94238     1.53359
H     1.0    -2.89023    -3.06999    -0.13334
H     1.0    -3.55643    -1.51851     0.31808
H     1.0    -3.05792    -1.38632     3.16815
H     1.0    -0.96847    -1.83337     4.58344
O     8.0    -0.38612    -3.13535    -1.17149
O     8.0    -0.45172     2.66707     0.75880
C     6.0     1.78693    -1.38034    -1.66226
C     6.0     1.75320     1.60059    -0.67071
N     7.0     2.29025    -1.47459    -0.27701
N     7.0     2.26397     0.85685     0.49849
C     6.0     2.95970    -0.42236     0.47510
C     6.0     2.80805    -0.93194     2.00196
C     6.0     1.91900     1.15933     1.75566
N     7.0     2.07941    -2.18330     1.84644
N     7.0     2.05300     0.14814     2.62195
O     8.0     1.49572     2.25061     2.07784
O     8.0     1.56135    -3.55190     0.14773
C     6.0     1.96009    -2.47670     0.54621
H     1.0     1.97191    -2.31720    -2.23111
H     1.0     2.33169    -0.60689    -2.22225
H     1.0     2.30983     1.32782    -1.57862
H     1.0     1.91501     2.69509    -0.56403
H     1.0     4.00461    -0.29287     0.12118
H     1.0     3.76422    -1.10061     2.54161
C     6.0     1.33394    -2.90255     2.89908
C     6.0     1.30019     0.07839     3.89063
H     1.0     1.72421    -2.64827     3.89484
H     1.0     1.47014    -4.00285     2.81999
H     1.0     1.41348     1.00942     4.48715
H     1.0     1.70230    -0.71354     4.53845
 $END
