 $CONTRL SCFTYP=RHF DFTTYP=B97D RUNTYP=OPTIMIZE
         D5=.T. INTTYP=HONDO ICUT=11 ITOL=30 $END
 $SYSTEM TIMLIM=7200 MWORDS=200 $END
 $SCF    DIRSCF=.T. NCONV=6 $END
 $BASIS  EXTFIL=.T. GBASIS=TZVP $END
 $DFTD   VERSN=4 $END
 $SMP    HTTFIX=.F. CALL64=.T. $END
 $P2P    P2P=.T. XDLB=.T. $END
 $STATPT OPTTOL=0.0001 NSTEP=100 NPRT=-2 $END
 $DATA 
Q3 DFT-D4/def2TZVP with spherical basis functions. Geometry optimisation
C1
 C           6.0   2.0378761190  -1.9379153629   0.0000000000
 C           6.0   0.6593458751   2.7338101703   0.0000000000
 C           6.0  -2.6972219941  -0.7958948074   0.0000000000
 C           6.0  -2.6972521501   0.7959301617   0.0000000000
 C           6.0   0.6593303354  -2.7338539632   0.0000000000
 C           6.0   2.0379218147   1.9379238015   0.0000000000
 N           7.0   2.0083196855  -1.2145205444  -1.2477684532
 N           7.0   0.0476458021   2.3465161387  -1.2477684532
 N           7.0  -2.0559654876  -1.1319955944   1.2477684532
 N           7.0   2.0083196855  -1.2145205444   1.2477684532
 N           7.0   0.0476458021   2.3465161387   1.2477684532
 N           7.0  -2.0559654876  -1.1319955944  -1.2477684532
 N           7.0  -2.0569135902   1.1322111554  -1.2483987766
 N           7.0   0.0479331720  -2.3474450002  -1.2483987766
 N           7.0   2.0089804182   1.2152338448   1.2483987766
 N           7.0  -2.0569135902   1.1322111554   1.2483987766
 N           7.0   0.0479331720  -2.3474450002   1.2483987766
 N           7.0   2.0089804182   1.2152338448  -1.2483987766
 C           6.0  -1.8816830861  -0.0000347263  -2.0560426017
 C           6.0   0.9408716169  -1.6295679913  -2.0560426017
 C           6.0   0.9408114692   1.6296027175   2.0560426017
 C           6.0  -1.8816830861  -0.0000347263   2.0560426017
 C           6.0   0.9408716169  -1.6295679913   2.0560426017
 C           6.0   0.9408114692   1.6296027175  -2.0560426017
 O           8.0  -1.6520859527  -0.0001315350  -3.2422630273
 O           8.0   0.8261568890  -1.4306826368  -3.2422630273
 O           8.0   0.8259290637   1.4308141718   3.2422630273
 O           8.0  -1.6520859527  -0.0001315350   3.2422630273
 O           8.0   0.8261568890  -1.4306826368   3.2422630273
 O           8.0   0.8259290637   1.4308141718  -3.2422630273
 C           6.0  -1.3650227279   2.3642888079  -1.5886384629
 C           6.0  -1.3650228056  -2.3642887630  -1.5886384629
 C           6.0   2.7300455335  -0.0000000449   1.5886384629
 C           6.0  -1.3650227279   2.3642888079   1.5886384629
 C           6.0  -1.3650228056  -2.3642887630   1.5886384629
 C           6.0   2.7300455335  -0.0000000449  -1.5886384629
 H           1.0  -1.8517548181   3.2071095910  -1.0909956601
 H           1.0  -1.8515609695  -3.2072215095  -1.0909956601
 H           1.0   3.7033157876   0.0001119185   1.0909956601
 H           1.0  -1.8517548181   3.2071095910   1.0909956601
 H           1.0  -1.8515609695  -3.2072215095   1.0909956601
 H           1.0   3.7033157876   0.0001119185  -1.0909956601
 H           1.0   2.8887016950  -2.6361213895   0.0000000000
 H           1.0   0.8385972432   3.8197497466   0.0000000000
 H           1.0  -3.7272989383  -1.1836283571   0.0000000000
 H           1.0  -3.7272066632   1.1838843884   0.0000000000
 H           1.0   0.8383293761  -3.8197978497   0.0000000000
 H           1.0   2.8888772871   2.6359134612   0.0000000000
 H           1.0  -1.4391959680   2.4933251619  -2.6673507752
 H           1.0  -1.4396849461  -2.4930428502  -2.6673507752
 H           1.0   2.8788809141  -0.0002823117   2.6673507752
 H           1.0  -1.4391959680   2.4933251619   2.6673507752
 H           1.0  -1.4396849461  -2.4930428502   2.6673507752
 H           1.0   2.8788809141  -0.0002823117  -2.6673507752
 $END
