 $CONTRL SCFTYP=RHF RUNTYP=OPTIMIZE COORD=UNIQUE units=ANGS 
         icharg=0 mult=1 MAXIT=100 $END
 $SYSTEM TIMLIM=60 MWORDS=40 $END
 $BASIS GBASIS=STO NGAUSS=3 $END
 $SCF DIRSCF=.T. NCONV=6 $END
 $STATPT OPTTOL=0.0001 NSTEP=30 $END
 $DATA 
Q3 STO3G Geometry optimisation with C3h symmetry 
CNH 3

 C           6.0  -2.7362735997  -0.8325145860   0.0000000000
 C           6.0   2.0891118753   1.9534404222   0.0000000000
 N           7.0  -2.1194130759  -1.1586263258  -1.2710313528
 N           7.0   2.0631192926   1.2561245228  -1.2710436716
 C           6.0   1.0723496853   1.8573708504  -2.1151901946
 O           8.0   1.2210121611   2.1148533264  -3.3169168215
 C           6.0   2.6911236785   0.0000133628  -1.5438363318
 H           1.0   3.6166561975  -0.0000007756  -0.8980740576
 H           1.0  -3.7987939417  -1.2315067398   0.0000000000
 H           1.0   2.9659135943   2.6740949661   0.0000000000
 H           1.0   2.9755005238  -0.0000005658  -2.6421128689
 $END
