 $CONTRL EXETYP=RUN $END
 $CONTRL SCFTYP=RHF DFTTYP=B97D RUNTYP=OPTIMIZE
         D5=.T. INTTYP=HONDO ICUT=11 ITOL=30 $END
 $SYSTEM TIMLIM=3600 MWORDS=60 $END
 $SCF    DIRSCF=.T. NCONV=6 $END
 $BASIS  EXTFIL=.T. GBASIS=TZVP $END
 $DFTD   VERSN=4 $END
 $SMP    HTTFIX=.F. CALL64=.T. $END
 $P2P    P2P=.T. XDLB=.T. $END
 $STATPT OPTTOL=0.0001 NSTEP=100 $END
 $DATA 
Q3 DFT-D4/def2TZVP with spherical basis functions. D3h geometry Optimisation
DNH 3

 C           6.0   2.0197866030   1.9264057604   0.0000000000
 N           7.0   1.9886807324   1.2089840828  -1.2467624930
 C           6.0   0.9536280607   1.6517287323  -2.0453155677
 O           8.0   0.8607289090   1.4908215690  -3.2132381427
 C           6.0   2.6970559590   0.0000000000  -1.6052643209
 H           1.0   3.6800091218   0.0000000000  -1.1597343245
 H           1.0   2.8637492012   2.6002210134   0.0000000000
 H           1.0   2.8150076086   0.0000000000  -2.6746575151
 $END
