 $CONTRL EXETYP=RUN $END
 $CONTRL SCFTYP=RHF DFTTYP=B97D RUNTYP=OPTIMIZE MAXIT=100 ICHARG=0
         D5=.T. INTTYP=HONDO ICUT=11 ITOL=30 $END
 $SYSTEM TIMLIM=3600 MWORDS=60 $END
 $SCF    DIRSCF=.T. NCONV=7 $END
 $BASIS  EXTFIL=.T. GBASIS=TZVP $END
 $DFTD   VERSN=4 $END
 $SMP    HTTFIX=.F. CALL64=.T. $END
 $P2P    P2P=.T. XDLB=.T. $END
 $STATPT OPTTOL=0.0001 NSTEP=100 $END
 $DATA 
Q3 DFT-D4/def2TZVP & spherical basis functions. Geom opt with C3h symmetry
CNH 3

 C           6.0  -2.6919586251  -0.7966949141   0.0000000000
 C           6.0   2.0370176958   1.9342850428   0.0000000000
 N           7.0  -2.0562111304  -1.1312397067  -1.2548423582
 N           7.0   2.0110899097   1.2175813209  -1.2560563686
 C           6.0   0.9475418147   1.6403032475  -2.0662680034
 O           8.0   0.8383348877   1.4513060585  -3.2527635367
 C           6.0   2.7251038407   0.0000316572  -1.6085886617
 H           1.0   3.7154968978  -0.0009113601  -1.1479777829
 H           1.0  -3.7195554564  -1.1870362091   0.0000000000
 H           1.0   2.8873803891   2.6308000684   0.0000000000
 H           1.0   2.8290363063  -0.0005276385  -2.6963651409
 $END
