 $CONTRL SCFTYP=RHF RUNTYP=OPTIMIZE MPLEVL=2 MAXIT=50 COORD=UNIQUE $END
 $SYSTEM TIMLIM=600 MWORDS=130 $END
 $BASIS GBASIS=N31 NGAUSS=6 NDFUNC=1 NFFUNC=0 NPFUNC=1 $END
 $SCF DIRSCF=.TRUE. NCONV=6 $END
 $STATPT OPTTOL=0.0001 NSTEP=20 $END
 $DATA 
Q3 D3h symmetry MP2/6-31+G(d,p) Geom Optimisation
DNH 3

 C           6.0   2.0197866030   1.9264057604   0.0000000000
 N           7.0   1.9886807324   1.2089840828  -1.2467624930
 C           6.0   0.9536280607   1.6517287323  -2.0453155677
 O           8.0   0.8607289090   1.4908215690  -3.2132381427
 C           6.0   2.6970559590   0.0000000000  -1.6052643209
 H           1.0   3.6800091218   0.0000000000  -1.1597343245
 H           1.0   2.8637492012   2.6002210134   0.0000000000
 H           1.0   2.8150076086   0.0000000000  -2.6746575151
 $END
