#libdir  /Applications/Firefly/ECP/
 $CONTRL EXETYP=run $END
 $CONTRL SCFTYP=RHF DFTTYP=B97D RUNTYP=OPTIMIZE
         ECP=READ D5=.T. INTTYP=HONDO ICUT=11 ITOL=30 $END
 $SYSTEM TIMLIM=3600 MWORDS=130 $END
 $SCF    DIRSCF=.T. NCONV=6 $END
 $BASIS  EXTFIL=.T. GBASIS=TZVP $END
 $DFTD   VERSN=4 $END
 $SMP    HTTFIX=.F. CALL64=.T. $END
 $P2P    P2P=.T. XDLB=.T. $END
 $STATPT OPTTOL=0.0001 NSTEP=100 $END
 $DATA 
Xe in Q3 DFT-D4/def2TZVP with spherical basis functions and Xe ECP. Geometry optimisation
C1
 C           6.0  -1.7163021103   0.0436778515  -1.0695722635
 C           6.0  -0.2563836832   0.2699486481  -1.6992269536
 N           7.0  -1.7898586657   1.0415970110   0.0066918935
 N           7.0   0.3049116161   1.3642590108  -0.8944714552
 C           6.0  -0.6796834193   1.9186245682  -0.0416908699
 N           7.0  -1.7602276542  -1.4013010956  -0.8028000914
 N           7.0   0.3322737440  -1.0766750194  -1.7092419108
 C           6.0  -0.6348954881  -2.0510216062  -1.3638383237
 C           6.0  -2.5885671172   0.9673426967   1.2417582120
 C           6.0  -2.5517095949  -2.1003133693   0.2226222174
 H           1.0  -2.4860453362   0.2741474268  -1.7964600979
 H           1.0  -0.3320702653   0.6125521040  -2.7249705930
 N           7.0  -2.0271382907   0.2436316429   2.3943801361
 N           7.0  -2.0003433267  -2.1988807013   1.5839224962
 C           6.0  -2.0875745138  -1.2006391947   2.6597194108
 C           6.0  -0.7771867726  -1.4804374274   3.5457063425
 C           6.0  -0.9978196172   0.8515435040   3.1516280938
 C           6.0  -0.9538934822  -3.1180338934   1.8354549707
 N           7.0  -0.1217450125  -2.6000482599   2.8556989018
 N           7.0  -0.1485942694  -0.1575695644   3.6665093318
 O           8.0  -0.7887765658  -4.1619998428   1.2625958012
 O           8.0  -0.8572109911   2.0331323959   3.3172507139
 H           1.0  -3.5628133554   0.5431211627   1.0027959643
 H           1.0  -2.6997160032   2.0049665238   1.5780537229
 H           1.0  -2.6329927646  -3.1353252196  -0.1314707566
 H           1.0  -3.5387854725  -1.6435284759   0.2756944007
 H           1.0  -2.9856647650  -1.3996776156   3.2325583099
 H           1.0  -1.0526565781  -1.8137331500   4.5398431596
 O           8.0  -0.5136202043  -3.2369800276  -1.5066342991
 O           8.0  -0.5815782351   2.9549554448   0.5558106394
 C           6.0   1.7599232190  -1.4312392584  -1.6389225360
 C           6.0   1.7249804870   1.6354034376  -0.6177637847
 N           7.0   2.3930105052  -1.5174568418  -0.3128541465
 N           7.0   2.3673806390   0.9242903964   0.4995723307
 C           6.0   2.9633500988  -0.4197794625   0.4803488569
 C           6.0   2.8107093051  -0.9261003531   1.9967041313
 C           6.0   2.0815557667   1.3281476785   1.8264485153
 N           7.0   2.1753305899  -2.2437363849   1.8618415783
 N           7.0   2.1499853024   0.1977243868   2.6751666833
 O           8.0   1.8087525627   2.4452818923   2.1722129600
 O           8.0   1.8717910897  -3.7472550574   0.1096091971
 C           6.0   2.1224328198  -2.6410550602   0.5045403153
 H           1.0   1.8274897790  -2.4420763817  -2.0583287804
 H           1.0   2.3254030580  -0.7311423672  -2.2524506353
 H           1.0   2.2992603631   1.4536968260  -1.5252244422
 H           1.0   1.7698267291   2.6976556488  -0.3485158083
 H           1.0   4.0090130190  -0.3204827545   0.2140163104
 H           1.0   3.7848486583  -1.0671779138   2.4516095271
 C           6.0   1.3136954686  -2.9261835364   2.8412832102
 C           6.0   1.2796827194   0.1406935707   3.8609509779
 H           1.0   1.7194794459  -2.7625226583   3.8385982947
 H           1.0   1.3657994265  -3.9902329856   2.5813946110
 H           1.0   1.3091468878   1.1494330392   4.2901050354
 H           1.0   1.6945822357  -0.5790379393   4.5655617171
 XE         54.0   0.1562604990  -0.6175224691   0.9861598465
 $END
 $ECP 
C-ECP NONE
C-ECP
N-ECP NONE
N-ECP
C-ECP
N-ECP
N-ECP
C-ECP
C-ECP
C-ECP
H-ECP NONE
H-ECP
N-ECP
N-ECP
C-ECP
C-ECP
C-ECP
C-ECP
N-ECP
N-ECP
O-ECP NONE
O-ECP
H-ECP
H-ECP
H-ECP
H-ECP
H-ECP
H-ECP
O-ECP
O-ECP
C-ECP
C-ECP
N-ECP
N-ECP
C-ECP
C-ECP
C-ECP
N-ECP
N-ECP
O-ECP
O-ECP
C-ECP
H-ECP
H-ECP
H-ECP
H-ECP
H-ECP
H-ECP
C-ECP
C-ECP
H-ECP
H-ECP
H-ECP
H-ECP
@Xe_def2_SVP.ecp
 $END