#libdir  /Applications/Firefly/ECP/
 $CONTRL EXETYP=run $END
 $CONTRL SCFTYP=RHF DFTTYP=B97D RUNTYP=OPTIMIZE
         ECP=READ D5=.T. INTTYP=HONDO ICUT=11 ITOL=30 $END
 $SYSTEM TIMLIM=3600 MWORDS=130 $END
 $SCF    DIRSCF=.T. NCONV=7 $END
 $BASIS  EXTFIL=.T. GBASIS=TZVP $END
 $DFTD   VERSN=4 $END
 $SMP    HTTFIX=.F. CALL64=.T. $END
 $P2P    P2P=.T. XDLB=.T. $END
 $STATPT OPTTOL=0.0001 NSTEP=100 $END
 $DATA 
Xe in Q3 DFT-D4/def2TZVP with spherical basis functions and Xe ECP. Geom opt with C3h symmetry
CNH 3

 C           6.0  -2.7287804466  -0.8031497266   0.0000000000
 C           6.0   2.0594039429   1.9607843026   0.0000000000
 N           7.0  -2.1430424235  -1.1581320325  -1.2937115109
 N           7.0   2.0716203182   1.2751857011  -1.2928134650
 C           6.0   0.9777716196   1.6943652898  -2.0777889737
 O           8.0   0.8403041520   1.4560877233  -3.2742316567
 C           6.0   2.7386735613   0.0000273494  -1.6198370178
 H           1.0   3.7209139115   0.0010545413  -1.1522050069
 H           1.0  -3.7471228560  -1.1856375537   0.0000000000
 H           1.0   2.9015837385   2.6494272953   0.0000000000
 H           1.0   2.8293711326   0.0001978994  -2.7012471048
 XE         54.0   0.0000000000   0.0000000000   0.0000000000
 $END
 $ECP 
C-ECP NONE
C-ECP
C-ECP
C-ECP
C-ECP
C-ECP
N-ECP NONE
N-ECP
N-ECP
N-ECP
N-ECP
N-ECP
N-ECP
N-ECP
N-ECP
N-ECP
N-ECP
N-ECP
C-ECP
C-ECP
C-ECP
C-ECP
C-ECP
C-ECP
O-ECP NONE
O-ECP
O-ECP
O-ECP
O-ECP
O-ECP
C-ECP
C-ECP
C-ECP
C-ECP
C-ECP
C-ECP
H-ECP NONE
H-ECP
H-ECP
H-ECP
H-ECP
H-ECP
H-ECP
H-ECP
H-ECP
H-ECP
H-ECP
H-ECP
H-ECP
H-ECP
H-ECP
H-ECP
H-ECP
H-ECP
@Xe_def2_SVP.ecp
 $END